max: +3*x1001+3*x1002-1*x1003-1*x1004-1*x1005-1*x2001-1*x2002+3*x2003+3*x2004-1*x2005-1*x3001-1*x3002+3*x3003+3*x3004-1*x3005-1*x4001-1*x4002-1*x4003-1*x4004+3*x4005-1*x5001-1*x5002-1*x5003-1*x5004+3*x5005;
 x1001<1;
 x1002<1;
 x1003<1;
 x1004<1;
 x1005<1;
 x2001<1;
 x2002<1;
 x2003<1;
 x2004<1;
 x2005<1;
 x3001<1;
 x3002<1;
 x3003<1;
 x3004<1;
 x3005<1;
 x4001<1;
 x4002<1;
 x4003<1;
 x4004<1;
 x4005<1;
 x5001<1;
 x5002<1;
 x5003<1;
 x5004<1;
 x5005<1;
x1002+x1001<1;
x1003+x1001<1;
x1004+x1001<1;
x1005+x1001<1;
x1003+x1002<1;
x1004+x1002<1;
x1005+x1002<1;
x1004+x1003<1;
x1005+x1003<1;
x1005+x1004<1;
x1001+x2001<1;
x1002+x2001<1;
x1003+x2001<1;
x1004+x2001<1;
x1005+x2001<1;
x1002+x2002<1;
x1003+x2002<1;
x1004+x2002<1;
x1005+x2002<1;
x1003+x2003<1;
x1004+x2003<1;
x1005+x2003<1;
x1004+x2004<1;
x1005+x2004<1;
x1005+x2005<1;
x1001+x3001<1;
x1002+x3001<1;
x1003+x3001<1;
x1004+x3001<1;
x1005+x3001<1;
x1002+x3002<1;
x1003+x3002<1;
x1004+x3002<1;
x1005+x3002<1;
x1003+x3003<1;
x1004+x3003<1;
x1005+x3003<1;
x1004+x3004<1;
x1005+x3004<1;
x1005+x3005<1;
x1001+x4001<1;
x1002+x4001<1;
x1003+x4001<1;
x1004+x4001<1;
x1005+x4001<1;
x1002+x4002<1;
x1003+x4002<1;
x1004+x4002<1;
x1005+x4002<1;
x1003+x4003<1;
x1004+x4003<1;
x1005+x4003<1;
x1004+x4004<1;
x1005+x4004<1;
x1005+x4005<1;
x1001+x5001<1;
x1002+x5001<1;
x1003+x5001<1;
x1004+x5001<1;
x1005+x5001<1;
x1002+x5002<1;
x1003+x5002<1;
x1004+x5002<1;
x1005+x5002<1;
x1003+x5003<1;
x1004+x5003<1;
x1005+x5003<1;
x1004+x5004<1;
x1005+x5004<1;
x1005+x5005<1;
x2002+x2001<1;
x2003+x2001<1;
x2004+x2001<1;
x2005+x2001<1;
x2003+x2002<1;
x2004+x2002<1;
x2005+x2002<1;
x2004+x2003<1;
x2005+x2003<1;
x2005+x2004<1;
x2001+x3001<1;
x2002+x3001<1;
x2003+x3001<1;
x2004+x3001<1;
x2005+x3001<1;
x2002+x3002<1;
x2003+x3002<1;
x2004+x3002<1;
x2005+x3002<1;
x2003+x3003<1;
x2004+x3003<1;
x2005+x3003<1;
x2004+x3004<1;
x2005+x3004<1;
x2005+x3005<1;
x2001+x4001<1;
x2002+x4001<1;
x2003+x4001<1;
x2004+x4001<1;
x2005+x4001<1;
x2002+x4002<1;
x2003+x4002<1;
x2004+x4002<1;
x2005+x4002<1;
x2003+x4003<1;
x2004+x4003<1;
x2005+x4003<1;
x2004+x4004<1;
x2005+x4004<1;
x2005+x4005<1;
x2001+x5001<1;
x2002+x5001<1;
x2003+x5001<1;
x2004+x5001<1;
x2005+x5001<1;
x2002+x5002<1;
x2003+x5002<1;
x2004+x5002<1;
x2005+x5002<1;
x2003+x5003<1;
x2004+x5003<1;
x2005+x5003<1;
x2004+x5004<1;
x2005+x5004<1;
x2005+x5005<1;
x3002+x3001<1;
x3003+x3001<1;
x3004+x3001<1;
x3005+x3001<1;
x3003+x3002<1;
x3004+x3002<1;
x3005+x3002<1;
x3004+x3003<1;
x3005+x3003<1;
x3005+x3004<1;
x3001+x4001<1;
x3002+x4001<1;
x3003+x4001<1;
x3004+x4001<1;
x3005+x4001<1;
x3002+x4002<1;
x3003+x4002<1;
x3004+x4002<1;
x3005+x4002<1;
x3003+x4003<1;
x3004+x4003<1;
x3005+x4003<1;
x3004+x4004<1;
x3005+x4004<1;
x3005+x4005<1;
x3001+x5001<1;
x3002+x5001<1;
x3003+x5001<1;
x3004+x5001<1;
x3005+x5001<1;
x3002+x5002<1;
x3003+x5002<1;
x3004+x5002<1;
x3005+x5002<1;
x3003+x5003<1;
x3004+x5003<1;
x3005+x5003<1;
x3004+x5004<1;
x3005+x5004<1;
x3005+x5005<1;
x4002+x4001<1;
x4003+x4001<1;
x4004+x4001<1;
x4005+x4001<1;
x4003+x4002<1;
x4004+x4002<1;
x4005+x4002<1;
x4004+x4003<1;
x4005+x4003<1;
x4005+x4004<1;
x4001+x5001<1;
x4002+x5001<1;
x4003+x5001<1;
x4004+x5001<1;
x4005+x5001<1;
x4002+x5002<1;
x4003+x5002<1;
x4004+x5002<1;
x4005+x5002<1;
x4003+x5003<1;
x4004+x5003<1;
x4005+x5003<1;
x4004+x5004<1;
x4005+x5004<1;
x4005+x5005<1;
x5002+x5001<1;
x5003+x5001<1;
x5004+x5001<1;
x5005+x5001<1;
x5003+x5002<1;
x5004+x5002<1;
x5005+x5002<1;
x5004+x5003<1;
x5005+x5003<1;
x5005+x5004<1;
int x1001, x1002, x1003, x1004, x1005, x2001, x2002, x2003, x2004, x2005, x3001, x3002, x3003, x3004, x3005, x4001, x4002, x4003, x4004, x4005, x5001, x5002, x5003, x5004, x5005;
